
%FILE DATA:	Soccer Computational Problem for MiniZinc Models	%
%AUTHOR:	Jack Wall	%
%CONTACT:  	116397063@umail.ucc.ie			%
%LAST UPDATE:	03/09/2020, 15:15:29						%
%DESCRIPTION: 	102 games played with 30 games left				%


n=12; %number of teams

%Games to play
games=[|5,7|9,6|2,12|11,1|12,5|7,4|11,8|9,4|12,8|6,2|1,11|12,7|4,11|3,6|8,12|6,8|2,5|3,5|3,4|1,7|7,6|7,12|4,1|10,7|8,4|1,12|5,3|3,10|12,6|6,4|];

%Initial points
iPoints=[14,34,21,17,21,23,34,20,23,25,25,18];

%POSITION CONSTRAINTS
% [|teamID, operator, position|...]
% operators index:
%  1 for =  operator
%  2 for >  operator
%  3 for >= operator
%  4 for <  operator
%  5 for <= operator
positionConstraints=[|7,5,1|6,5,2|];